--- Job SetPackingB.gms Start 05/01/20 00:02:35 30.3.0 rc5da09e WEX-WEI x86 64bit/MS Windows
--- GAMS Parameters defined
    Input C:\aguadix\GITHUB\SOC\2MixedIntegerProgramming\4SetPacking\SetPackingB\SetPackingB.gms
    PageSize 0
    ScrDir C:\aguadix\GITHUB\SOC\2MixedIntegerProgramming\4SetPacking\SetPackingB\225a\
    SysDir C:\GAMS\win64\30.3\
    LogOption 3
    ErrMsg 1
    ErrorLog 99
    IDE 1
    LstTitleLeftAligned 1
GAMS 30.3.0   Copyright (C) 1987-2020 GAMS Development. All rights reserved
Licensee: GAMS Demo license for ANTONIO MARIA GUADIX ESCOG200420|0002CO-GEN
          UNIVERSITY OF GRANADA, Spain                             DL007289
          aguadix@ugr.es, ANTONIO MARIA GUADIX ESCOBAR                     
          Demo license for demonstration and instructional purposes only
--- Starting compilation
--- SetPackingB.gms(38) 3 Mb
--- Starting execution: elapsed 0:00:00.007
--- Generating MIP model SetPackingB
--- SetPackingB.gms(38) 4 Mb
---   6 rows  7 columns  17 non-zeroes
---   6 discrete-columns
--- Executing CPLEX: elapsed 0:00:00.025

IBM ILOG CPLEX   30.3.0 rc5da09e Released Mar 06, 2020 WEI x86 64bit/MS Window
*** This solver runs with a demo license. No commercial use.
Cplex 12.10.0.0

Reading data...
Starting Cplex...
Space for names approximately 0.00 Mb
Use option 'names no' to turn use of names off
Version identifier: 12.10.0.0 | 2019-11-26 | 843d4de2ae
CPXPARAM_Advance                                 0
CPXPARAM_Simplex_Display                         2
CPXPARAM_Threads                                 1
CPXPARAM_Parallel                                1
CPXPARAM_MIP_Display                             4
CPXPARAM_Simplex_Limits_Iterations               2000000000
CPXPARAM_TimeLimit                               1000
CPXPARAM_Tune_TimeLimit                          200
CPXPARAM_MIP_Tolerances_AbsMIPGap                0
CPXPARAM_MIP_Tolerances_MIPGap                   0.10000000000000001
CPXPARAM_WorkDir                                 "C:\aguadix\GITHUB\SOC\2MixedIntegerProgramming\4SetPacking\SetPackingB\225a\"
Found incumbent of value 0.000000 after 0.00 sec. (0.00 ticks)
Tried aggregator 2 times.
MIP Presolve eliminated 4 rows and 5 columns.
MIP Presolve modified 1 coefficients.
Aggregator did 2 substitutions.
All rows and columns eliminated.
Presolve time = 0.00 sec. (0.01 ticks)

Root node processing (before b&c):
  Real time             =    0.00 sec. (0.01 ticks)
Sequential b&c:
  Real time             =    0.00 sec. (0.00 ticks)
                          ------------
Total (root+branch&cut) =    0.00 sec. (0.01 ticks)
MIP status(101): integer optimal solution
Cplex Time: 0.00sec (det. 0.01 ticks)
Fixing integer variables, and solving final LP...
Version identifier: 12.10.0.0 | 2019-11-26 | 843d4de2ae
CPXPARAM_Advance                                 2
CPXPARAM_Simplex_Display                         2
CPXPARAM_Threads                                 1
CPXPARAM_Parallel                                1
CPXPARAM_MIP_Display                             4
CPXPARAM_Simplex_Limits_Iterations               2000000000
CPXPARAM_TimeLimit                               1000
CPXPARAM_Tune_TimeLimit                          200
CPXPARAM_MIP_Tolerances_AbsMIPGap                0
CPXPARAM_MIP_Tolerances_MIPGap                   0.10000000000000001
CPXPARAM_WorkDir                                 "C:\aguadix\GITHUB\SOC\2MixedIntegerProgramming\4SetPacking\SetPackingB\225a\"
Tried aggregator 1 time.
LP Presolve eliminated 6 rows and 7 columns.
All rows and columns eliminated.
Presolve time = 0.00 sec. (0.00 ticks)
Fixed MIP status(1): optimal
Cplex Time: 0.00sec (det. 0.00 ticks)

Proven optimal solution.

MIP Solution:            5.000000    (0 iterations, 0 nodes)
Final Solve:             5.000000    (0 iterations)

Best possible:           5.000000
Absolute gap:            0.000000
Relative gap:            0.000000

--- Restarting execution
--- SetPackingB.gms(38) 2 Mb
--- Reading solution for model SetPackingB
*** Status: Normal completion
--- Job SetPackingB.gms Stop 05/01/20 00:02:35 elapsed 0:00:00.152
